(set-info :smt-lib-version 2.6)
(set-logic QF_UFLRA)
(set-info :source |
MathSat group

|)
(set-info :category "random")
(set-info :status sat)
(declare-fun x0 () Real)
(declare-fun x1 () Real)
(declare-fun x2 () Real)
(declare-fun x3 () Real)
(declare-fun x4 () Real)
(declare-fun x5 () Real)
(declare-fun x6 () Real)
(declare-fun x7 () Real)
(declare-fun x8 () Real)
(declare-fun x9 () Real)
(declare-fun x10 () Real)
(declare-fun x11 () Real)
(declare-fun x12 () Real)
(declare-fun x13 () Real)
(declare-fun x14 () Real)
(declare-fun x15 () Real)
(declare-fun x16 () Real)
(declare-fun x17 () Real)
(declare-fun x18 () Real)
(declare-fun x19 () Real)
(declare-fun x20 () Real)
(declare-fun x21 () Real)
(declare-fun x22 () Real)
(declare-fun x23 () Real)
(declare-fun x24 () Real)
(declare-fun x25 () Real)
(declare-fun x26 () Real)
(declare-fun x27 () Real)
(declare-fun x28 () Real)
(declare-fun x29 () Real)
(declare-fun f0_1 (Real) Real)
(declare-fun f0_2 (Real Real) Real)
(declare-fun f0_3 (Real Real Real) Real)
(declare-fun f0_4 (Real Real Real Real) Real)
(declare-fun P0 () Bool)
(declare-fun P1 () Bool)
(declare-fun P2 () Bool)
(declare-fun P3 () Bool)
(declare-fun P4 () Bool)
(declare-fun P5 () Bool)
(declare-fun P6 () Bool)
(declare-fun P7 () Bool)
(declare-fun P8 () Bool)
(declare-fun P9 () Bool)
(declare-fun P10 () Bool)
(declare-fun P11 () Bool)
(declare-fun P12 () Bool)
(declare-fun P13 () Bool)
(declare-fun P14 () Bool)
(declare-fun P15 () Bool)
(declare-fun P16 () Bool)
(declare-fun P17 () Bool)
(declare-fun P18 () Bool)
(declare-fun P19 () Bool)
(declare-fun P20 () Bool)
(declare-fun P21 () Bool)
(declare-fun P22 () Bool)
(declare-fun P23 () Bool)
(declare-fun P24 () Bool)
(declare-fun P25 () Bool)
(declare-fun P26 () Bool)
(declare-fun P27 () Bool)
(declare-fun P28 () Bool)
(declare-fun P29 () Bool)
(assert (let ((?v_58 (< (- (+ (* 11 x4) (* 20 x4)) (* 7 x22)) 28)) (?v_25 (<= (- (- (* 35 x4) (* 21 x27)) (* 26 x14)) 24)) (?v_23 (* 9 x26)) (?v_136 (< (- (+ (* 16 x14) (* 20 x2)) (* 19 x9)) 23)) (?v_56 (* 7 x26)) (?v_120 (* 4 x19)) (?v_126 (= (- (+ (* 39 x14) (* 38 x12)) (* 4 x26)) 38)) (?v_129 (<= (- (+ (* 30 x3) (* 25 x18)) (* 41 x13)) 3)) (?v_2 (f0_1 x25))) (let ((?v_15 (distinct ?v_2 (f0_1 x2))) (?v_39 (= (f0_2 x10 x24) x23)) (?v_78 (distinct x1 x14)) (?v_149 (= (f0_1 x1) x21)) (?v_79 (= x10 (f0_2 x19 x7))) (?v_147 (distinct (f0_1 x11) x14)) (?v_49 (= (f0_2 x22 x11) x21)) (?v_52 (= x18 x4)) (?v_1 (= x21 (f0_1 x26))) (?v_65 (= x19 (f0_2 x23 x6))) (?v_95 (distinct (f0_1 x27) (f0_2 x0 x29))) (?v_14 (f0_1 x28))) (let ((?v_21 (distinct (f0_1 x9) ?v_14)) (?v_96 (= x20 x28)) (?v_61 (= x25 x10)) (?v_85 (= (f0_2 x4 x28) (f0_2 x1 x24))) (?v_54 (= x16 (f0_2 x15 x14))) (?v_13 (distinct x24 x29)) (?v_6 (f0_1 x13))) (let ((?v_50 (= ?v_6 (f0_1 x12))) (?v_34 (distinct (f0_2 x8 x24) (f0_2 x21 x20))) (?v_37 (= x17 ?v_6)) (?v_86 (distinct (f0_2 x0 x28) x13)) (?v_11 (= x8 x19)) (?v_45 (distinct x6 (f0_2 x0 x22))) (?v_38 (distinct x17 (f0_1 x23))) (?v_82 (distinct x1 (f0_2 x25 x28))) (?v_41 (= x23 x20)) (?v_24 (distinct x24 ?v_14)) (?v_69 (= (f0_2 x26 x8) (f0_1 x7))) (?v_106 (distinct (f0_2 x2 x1) ?v_2)) (?v_16 (= x21 ?v_2)) (?v_10 (not P23)) (?v_12 (not ?v_136)) (?v_5 (not P25))) (let ((?v_59 (not ?v_16)) (?v_57 (not ?v_147)) (?v_152 (not P21)) (?v_111 (not ?v_50)) (?v_128 (not ?v_15)) (?v_70 (not ?v_13)) (?v_112 (not P0)) (?v_72 (not P17)) (?v_116 (not P11)) (?v_102 (not P22)) (?v_64 (not ?v_37)) (?v_42 (not P16)) (?v_36 (not P15)) (?v_51 (not P1)) (?v_20 (not P12)) (?v_80 (not P3)) (?v_68 (not ?v_129)) (?v_40 (not P19)) (?v_19 (not P5)) (?v_27 (not P28)) (?v_62 (not ?v_34)) (?v_84 (not ?v_21)) (?v_35 (not ?v_49)) (?v_83 (not ?v_106)) (?v_32 (not ?v_82)) (?v_74 (not ?v_86)) (?v_60 (not ?v_24)) (?v_115 (not ?v_38)) (?v_124 (not P2)) (?v_134 (not ?v_45)) (?v_71 (not ?v_149)) (?v_150 (not ?v_95)) (?v_53 (not P29)) (?v_75 (not ?v_79)) (?v_67 (not ?v_52)) (?v_103 (not P14)) (?v_91 (not ?v_58)) (?v_114 (not ?v_61)) (?v_88 (not ?v_39)) (?v_118 (not ?v_69)) (?v_90 (not P13)) (?v_87 (not P20)) (?v_130 (not ?v_126)) (?v_92 (not ?v_54)) (?v_110 (not P8)) (?v_99 (not ?v_78)) (?v_108 (not P27)) (?v_109 (not ?v_85)) (?v_123 (not ?v_41)) (?v_105 (not P4)) (?v_121 (not ?v_25)) (?v_148 (not P24)) (?v_133 (not P18)) (?v_122 (not ?v_96))) (let ((?v_154 (or ?v_122 P28)) (?v_153 (not P26)) (?v_137 (not P6)) (?v_141 (not P9)) (?v_140 (not ?v_11)) (?v_145 (not ?v_65)) (?v_142 (not P7)) (?v_146 (not P10)) (?v_155 (or ?v_112 ?v_40)) (?v_8 (< (+ (* 39 x6) (* 28 x20) (* 11 x16)) 6))) (let ((?v_44 (not ?v_8)) (?v_17 (<= (+ (* 34 x15) (* 27 x14) (* 29 x24)) 5)) (?v_113 (< (+ (* 19 x11) (* 7 x13) ?v_23) 16)) (?v_47 (= (- (* 8 x25) (* 30 x9)) 9))) (let ((?v_139 (not ?v_47)) (?v_127 (not ?v_17)) (?v_119 (not ?v_113)) (?v_48 (distinct (+ (- (* 38 x24) (* 13 x24)) (* 15 x26)) (- 10))) (?v_0 (< (+ (- 0 (* 26 x24)) (* 17 x5)) (- 20))) (?v_31 (< (+ (* (- 17) x12) (* 7 x6) (* 5 x18)) 34))) (let ((?v_66 (not ?v_0)) (?v_3 (= (- (+ (* (- 27) x1) (* 33 x23)) (* 15 x13)) 15)) (?v_4 (< (- (- (* (- 9) x25) (* 33 x4)) (* 11 x26)) 14))) (let ((?v_9 (not ?v_4)) (?v_7 (not ?v_3)) (?v_93 (<= (- (- (* 10 x3) 0) ?v_120) (- 12)))) (let ((?v_46 (not ?v_93)) (?v_138 (< (- (+ (* (- 15) x10) (* 8 x2)) ?v_56) 11))) (let ((?v_29 (not ?v_138)) (?v_63 (< (- (- (* 36 x13) (* 19 x20)) (* 33 x25)) (- 33))) (?v_18 (<= (+ (- (* (- 2) x18) (* 26 x29)) (* 38 x7)) (- 6))) (?v_33 (< (- (- x8 (* 3 x2)) (* 24 x17)) (- 23)))) (let ((?v_30 (not ?v_33)) (?v_28 (< (- (- (* (- 40) x14) (* 18 x17)) (* 37 x13)) (- 40)))) (let ((?v_97 (not ?v_28)) (?v_22 (not ?v_18)) (?v_26 (<= (- ?v_23 (* 2 x1)) (- 11)))) (let ((?v_43 (not ?v_26)) (?v_144 (not ?v_31)) (?v_81 (< (+ (- (* 15 x1) (* 22 x13)) (* 4 x22)) (- 11))) (?v_107 (<= (+ (- (* (- 12) x29) (* 4 x18)) (* 14 x14)) 42))) (let ((?v_89 (not ?v_107)) (?v_55 (< (- (- (* (- 28) x1) (* 34 x29)) (* 24 x10)) (- 41))) (?v_101 (< (+ (* 2 x7) ?v_56 (* 4 x5)) (- 37)))) (let ((?v_94 (not ?v_101)) (?v_77 (not ?v_55)) (?v_100 (<= (- (- (* (- 40) x20) (* 35 x19)) (* 8 x20)) 2))) (let ((?v_76 (not ?v_100)) (?v_73 (< (+ (* (- 27) x15) (* 41 x27) (* 14 x19)) 7)) (?v_131 (not ?v_48)) (?v_117 (not ?v_81))) (let ((?v_98 (not ?v_73)) (?v_132 (<= (+ (- (* (- 1) x6) (* 23 x1)) (* 5 x11)) (- 3))) (?v_104 (< (+ (* 40 x18) (* 10 x21) (* 5 x10)) (- 17)))) (let ((?v_135 (not ?v_104)) (?v_125 (<= (+ (* (- 14) x20) (* 10 x9) ?v_120) (- 39)))) (let ((?v_151 (not ?v_125)) (?v_143 (not ?v_132))) (and (and (and (and (and (and (and (and (and (and (and (and (and (and (and (and (and (and (and (and (and (and (and (and (and (and (and (and (and (and (and (and (and (and (and (and (and (and (and (and (and (and (and (and (and (and (and (and (and (and (and (and (and (and (and (and (and (and (and (and (and (and (and (and (and (and (and (and (and (and (and (and (and (and (and (and (and (and (and (and (and (and (and (and (and (and (and (and (and (and (and (and (and (and (and (and (and (and (and (and (and (and (and (and (and (and (and (and (and (and (and (and (and (and (and (and (and (and (and (and (and (and (and (and (and (and (and (and (and (and (and (and (and (and (and (and (and (and (and (and (and (and (and (and (and (and (and (and (and (and (and (and (and (and (and (and (and (and (and (and (and (and (and (and (and (and (and (and (and (and (and (and (and (and (and (and (and (and (and (and (and (and (and (and (and (and (and (and (and (and (and (and (and (and (and (and (and (and (and (and (and (and (and (and (and (and (and (and (and (and (and (and (and (and (and (and (and (and (and (and (and (and (and (and (and (and (and (and (and (and (and (and (and (and (and (and (and (and (and (and (and (and (and (and (and (and (and (and (and (and (and (and (and (and (and (and (and (and (and (and (and (and (and (and (and (and (and (and (and (and (and (and (and (and (and (and (and (and (and (and (and (and (and (and (and (and (and (and (and (and (and (and (and (and (and (and (and (and (and (and (and (and (and (and (and (and (and (and (and (and (and (and (and (and (and (and (and (and (and (and (and (and (and (and (and (and (and (and (and (and (and (and (and (and (and (and (and (and (and (and (and (and (and (and (and (and (and (and (and (and (and (and (and (and (and (and (and (and (and (or (or ?v_44 ?v_54) ?v_10) (or (or ?v_12 ?v_5) ?v_1)) (or (or P24 ?v_59) ?v_48)) (or (or ?v_0 ?v_57) ?v_31)) (or (or P27 ?v_152) ?v_66)) (or (or P7 ?v_3) ?v_17)) (or (or ?v_111 ?v_1) ?v_128)) (or (or P6 ?v_70) ?v_11)) (or (or ?v_112 ?v_96) ?v_9)) (or (or ?v_72 ?v_7) ?v_116)) (or (or ?v_113 ?v_46) ?v_4)) (or (or ?v_41 ?v_4) ?v_5)) (or (or ?v_102 ?v_58) ?v_25)) (or (or ?v_64 ?v_42) ?v_69)) (or (or ?v_3 ?v_7) ?v_8)) (or (or ?v_36 ?v_9) ?v_29)) (or (or ?v_10 P11) ?v_51)) (or (or ?v_63 P23) ?v_20)) (or (or ?v_24 ?v_18) P9)) (or (or ?v_80 ?v_11) ?v_39)) (or (or ?v_68 ?v_1) ?v_40)) (or (or ?v_19 ?v_27) ?v_62)) (or (or ?v_12 ?v_13) ?v_47)) (or (or ?v_84 ?v_15) ?v_30)) (or (or ?v_16 P5) ?v_97)) (or (or ?v_35 ?v_83) ?v_32)) (or (or P8 P13) ?v_17)) (or (or ?v_22 ?v_19) ?v_13)) (or (or P12 ?v_20) ?v_74)) (or (or ?v_21 ?v_22) ?v_43)) (or (or ?v_60 ?v_25) ?v_115)) (or (or ?v_26 ?v_27) ?v_28)) (or (or ?v_29 ?v_5) ?v_24)) (or (or ?v_30 P25) ?v_144)) (or (or ?v_124 ?v_32) ?v_81)) (or (or ?v_33 ?v_34) ?v_52)) (or (or ?v_13 P17) ?v_35)) (or (or ?v_36 ?v_37) ?v_134)) (or (or ?v_38 ?v_39) ?v_40)) (or (or ?v_16 ?v_41) ?v_42)) (or (or P15 ?v_12) ?v_3)) (or (or P1 ?v_43) ?v_44)) (or (or ?v_45 ?v_89) ?v_61)) (or (or ?v_42 P26) P24)) (or (or ?v_71 ?v_46) P0)) (or (or ?v_47 ?v_28) ?v_20)) (or (or ?v_48 P29) ?v_49)) (or (or ?v_150 ?v_53) ?v_3)) (or (or P21 ?v_40) ?v_50)) (or (or ?v_85 ?v_51) P6)) (or (or ?v_55 ?v_75) ?v_35)) (or (or ?v_67 ?v_13) ?v_53)) (or (or ?v_49 ?v_103) P9)) (or (or P6 P1) ?v_54)) (or (or ?v_8 ?v_55) ?v_27)) (or (or ?v_94 ?v_18) P9)) (or (or P6 ?v_57) P28)) (or (or ?v_91 ?v_59) ?v_60)) (or (or ?v_114 ?v_16) ?v_9)) (or (or ?v_62 P26) P4)) (or (or ?v_88 ?v_19) ?v_63)) (or (or P12 ?v_65) ?v_64)) (or (or ?v_9 ?v_78) P29)) (or (or ?v_65 ?v_31) ?v_77)) (or (or P0 P29) ?v_66)) (or (or ?v_67 ?v_46) P21)) (or (or ?v_21 ?v_68) ?v_15)) (or (or ?v_76 ?v_33) ?v_47)) (or (or ?v_18 ?v_25) ?v_118)) (or (or P21 ?v_70) P26)) (or (or ?v_67 ?v_73) ?v_71)) (or (or ?v_20 ?v_58) ?v_0)) (or (or ?v_11 P11) ?v_37)) (or (or ?v_131 ?v_72) ?v_73)) (or (or P4 ?v_59) ?v_62)) (or (or ?v_37 ?v_90) ?v_60)) (or (or ?v_74 ?v_87) P11)) (or (or ?v_67 ?v_75) ?v_76)) (or (or ?v_18 ?v_130) ?v_77)) (or (or ?v_92 ?v_31) P29)) (or (or P11 ?v_62) ?v_42)) (or (or ?v_78 ?v_79) ?v_110)) (or (or ?v_80 ?v_99) ?v_66)) (or (or ?v_117 ?v_82) ?v_83)) (or (or ?v_75 ?v_49) ?v_68)) (or (or P18 P21) ?v_98)) (or (or P25 ?v_84) ?v_67)) (or (or ?v_84 P16) ?v_108)) (or (or P25 ?v_109) ?v_32)) (or (or ?v_5 ?v_11) ?v_39)) (or (or ?v_86 ?v_3) P13)) (or (or ?v_20 ?v_37) P11)) (or (or P16 ?v_87) ?v_39)) (or (or P14 P4) P2)) (or (or ?v_123 ?v_88) ?v_105)) (or (or ?v_89 ?v_58) ?v_73)) (or (or ?v_63 ?v_33) ?v_50)) (or (or ?v_90 ?v_9) P9)) (or (or ?v_46 ?v_78) P25)) (or (or ?v_41 ?v_91) ?v_92)) (or (or ?v_13 ?v_8) ?v_93)) (or (or ?v_19 ?v_121) ?v_50)) (or (or ?v_139 ?v_132) ?v_94)) (or (or ?v_148 P3) ?v_133)) (or (or P3 ?v_90) ?v_9)) (or (or P12 P2) ?v_104)) (or (or ?v_95 ?v_32) ?v_58)) (or ?v_154 ?v_35)) (or (or ?v_30 P28) ?v_50)) (or (or ?v_97 ?v_41) P13)) (or (or ?v_98 P12) ?v_99)) (or (or ?v_100 P9) ?v_101)) (or (or ?v_35 ?v_33) (not ?v_63))) (or (or ?v_66 ?v_153) ?v_80)) (or (or ?v_39 ?v_127) ?v_57)) (or (or ?v_102 ?v_57) ?v_103)) (or (or ?v_137 ?v_135) P18)) (or (or ?v_28 ?v_20) ?v_26)) (or (or ?v_30 ?v_63) ?v_105)) (or (or P24 ?v_106) ?v_38)) (or (or ?v_104 ?v_34) ?v_100)) (or (or ?v_30 P22) ?v_107)) (or (or ?v_108 ?v_109) ?v_55)) (or (or ?v_110 ?v_18) ?v_54)) (or (or ?v_62 ?v_51) P0)) (or (or ?v_111 ?v_106) P9)) (or (or ?v_103 P21) ?v_112)) (or (or ?v_119 ?v_46) ?v_10)) (or (or ?v_5 ?v_27) P17)) (or (or ?v_84 ?v_59) ?v_114)) (or (or ?v_24 ?v_52) P26)) (or (or ?v_115 ?v_116) ?v_117)) (or (or ?v_71 ?v_96) ?v_93)) (or (or ?v_40 P17) P9)) (or (or ?v_51 ?v_18) ?v_12)) (or (or ?v_118 P29) ?v_79)) (or (or ?v_72 ?v_20) ?v_42)) (or (or ?v_119 P15) ?v_75)) (or (or P23 ?v_15) ?v_151)) (or (or ?v_13 ?v_110) ?v_81)) (or (or ?v_28 ?v_9) ?v_107)) (or (or ?v_101 ?v_44) ?v_70)) (or (or ?v_121 ?v_104) ?v_53)) (or (or ?v_122 ?v_21) ?v_100)) (or (or ?v_123 ?v_10) ?v_73)) (or (or ?v_114 P28) ?v_124)) (or (or ?v_44 ?v_108) ?v_65)) (or (or ?v_88 P20) ?v_124)) (or (or P15 ?v_31) ?v_70)) (or (or ?v_92 ?v_38) ?v_87)) (or (or ?v_15 ?v_104) ?v_101)) (or (or ?v_28 ?v_76) ?v_39)) (or (or ?v_91 ?v_141) ?v_107)) (or (or ?v_66 ?v_17) ?v_84)) (or (or ?v_7 ?v_27) ?v_52)) (or (or ?v_89 ?v_49) ?v_108)) (or (or ?v_63 ?v_125) ?v_76)) (or (or ?v_0 ?v_117) ?v_126)) (or (or ?v_127 ?v_107) ?v_28)) (or (or ?v_114 ?v_140) P22)) (or (or ?v_78 ?v_128) ?v_90)) (or (or P13 ?v_85) ?v_81)) (or (or ?v_39 ?v_38) ?v_129)) (or (or ?v_73 ?v_130) P28)) (or (or ?v_26 ?v_1) ?v_131)) (or (or ?v_132 ?v_145) ?v_124)) (or (or ?v_133 ?v_45) ?v_95)) (or (or ?v_77 ?v_60) ?v_130)) (or (or ?v_116 ?v_107) ?v_84)) (or (or P7 ?v_134) ?v_46)) (or (or ?v_106 ?v_135) ?v_75)) (or (or ?v_49 ?v_136) ?v_58)) (or (or P20 ?v_22) ?v_143)) (or (or ?v_136 ?v_43) ?v_73)) (or (or ?v_137 ?v_103) ?v_89)) (or (or ?v_43 P10) ?v_42)) (or (or ?v_126 ?v_82) ?v_135)) (or (or ?v_83 P18) ?v_43)) (or (or ?v_17 ?v_126) ?v_27)) (or (or ?v_79 ?v_117) P24)) (or (or ?v_142 ?v_59) ?v_41)) (or (or ?v_35 ?v_49) ?v_138)) (or (or ?v_64 ?v_116) ?v_5)) (or (or ?v_123 ?v_76) ?v_38)) (or (or ?v_44 ?v_81) P19)) (or (or ?v_43 ?v_117) ?v_139)) (or (or ?v_106 ?v_140) ?v_123)) (or (or ?v_57 P12) ?v_103)) (or (or ?v_131 ?v_94) ?v_11)) (or (or ?v_134 ?v_108) ?v_89)) (or (or P5 ?v_141) ?v_37)) (or (or ?v_79 P28) ?v_137)) (or (or P25 ?v_52) ?v_102)) (or (or ?v_111 ?v_33) ?v_18)) (or (or ?v_70 ?v_24) ?v_9)) (or (or P26 ?v_103) ?v_38)) (or (or ?v_44 ?v_29) ?v_64)) (or (or ?v_72 P20) ?v_57)) (or (or ?v_34 ?v_41) ?v_89)) (or (or ?v_75 P6) P12)) (or (or ?v_142 ?v_32) (not ?v_1))) (or (or ?v_146 ?v_70) ?v_142)) (or (or P29 P2) P18)) (or (or ?v_69 ?v_123) ?v_92)) (or (or ?v_77 ?v_54) ?v_143)) (or (or ?v_122 ?v_97) ?v_111)) (or (or P23 ?v_128) ?v_74)) (or (or ?v_58 ?v_41) P14)) (or (or ?v_136 ?v_57) ?v_33)) (or (or P18 ?v_5) ?v_29)) (or (or P25 ?v_143) P7)) (or (or ?v_54 ?v_7) ?v_35)) (or (or P27 P26) ?v_144)) (or (or ?v_86 ?v_137) ?v_41)) (or (or P14 ?v_142) ?v_93)) (or (or ?v_99 P15) P19)) (or (or ?v_81 ?v_135) ?v_30)) (or (or ?v_78 P1) P14)) (or (or ?v_58 ?v_50) ?v_126)) (or (or P28 ?v_70) ?v_145)) (or (or ?v_26 ?v_142) ?v_67)) (or (or ?v_146 ?v_113) ?v_106)) (or (or ?v_26 ?v_61) ?v_110)) (or (or ?v_38 ?v_102) ?v_97)) (or (or ?v_140 ?v_138) ?v_60)) (or (or ?v_65 ?v_61) ?v_92)) (or (or ?v_96 ?v_9) ?v_85)) (or (or ?v_52 P26) P13)) (or (or ?v_147 ?v_9) P1)) (or (or ?v_33 ?v_18) ?v_143)) (or (or ?v_148 ?v_128) ?v_34)) (or (or ?v_108 ?v_37) ?v_141)) (or (or ?v_97 ?v_7) ?v_10)) (or (or ?v_41 ?v_52) ?v_107)) (or (or ?v_5 ?v_21) ?v_124)) (or (or ?v_136 ?v_127) ?v_46)) (or (or ?v_134 ?v_32) ?v_142)) (or (or ?v_21 ?v_83) ?v_135)) (or (or ?v_79 ?v_131) ?v_139)) (or (or ?v_118 ?v_131) P26)) (or (or ?v_137 ?v_7) ?v_57)) (or (or ?v_147 ?v_124) ?v_17)) (or (or ?v_39 ?v_68) ?v_20)) (or (or ?v_79 ?v_0) P29)) (or (or ?v_45 ?v_82) P5)) (or (or ?v_136 ?v_64) ?v_149)) (or (or ?v_88 P11) ?v_109)) (or (or ?v_50 ?v_12) ?v_51)) (or (or ?v_44 ?v_26) ?v_74)) (or (or P8 ?v_141) ?v_128)) (or (or ?v_132 ?v_74) ?v_84)) (or (or ?v_114 P17) ?v_30)) (or (or P15 ?v_138) P8)) (or (or P26 ?v_133) ?v_140)) (or (or ?v_76 ?v_132) ?v_126)) (or (or ?v_117 P1) ?v_108)) (or (or ?v_64 ?v_60) P18)) (or (or P28 ?v_97) ?v_24)) (or (or P29 ?v_48) ?v_60)) (or (or ?v_104 ?v_61) ?v_115)) (or (or ?v_146 ?v_13) ?v_94)) (or (or ?v_62 ?v_125) ?v_104)) (or (or ?v_50 ?v_104) ?v_146)) (or (or ?v_15 ?v_128) ?v_150)) (or (or ?v_27 ?v_46) ?v_11)) (or (or P1 ?v_65) ?v_60)) (or (or ?v_1 ?v_42) ?v_66)) (or (or ?v_38 ?v_62) P28)) (or (or P12 ?v_13) ?v_18)) (or (or ?v_15 P23) ?v_9)) (or (or ?v_72 ?v_76) ?v_151)) (or (or P23 P14) P22)) (or (or ?v_99 ?v_3) ?v_108)) (or (or ?v_142 ?v_146) ?v_128)) (or (or ?v_96 ?v_132) ?v_15)) (or (or ?v_139 P8) ?v_113)) (or (or ?v_102 ?v_37) ?v_43)) (or (or P29 ?v_140) ?v_104)) (or (or ?v_3 ?v_135) P26)) (or (or ?v_13 ?v_55) ?v_102)) (or (or ?v_100 ?v_152) P23)) (or (or ?v_143 ?v_50) ?v_91)) (or (or ?v_31 ?v_100) ?v_86)) (or (or ?v_34 ?v_43) ?v_58)) (or (or ?v_11 P29) ?v_143)) (or (or ?v_43 ?v_134) ?v_19)) (or (or ?v_122 ?v_100) ?v_74)) (or (or ?v_40 ?v_115) ?v_64)) (or (or ?v_88 P2) ?v_153)) (or (or ?v_45 ?v_42) ?v_98)) (or (or ?v_152 ?v_32) ?v_55)) (or (or ?v_98 ?v_145) ?v_83)) (or (or P10 P23) ?v_3)) (or (or ?v_152 P17) ?v_135)) (or (or ?v_26 ?v_62) ?v_3)) (or ?v_155 ?v_135)) (or (or ?v_0 ?v_95) ?v_15)) (or (or ?v_70 ?v_53) ?v_50)) (or (or P20 ?v_100) ?v_114)) (or (or ?v_141 ?v_104) ?v_63)) (or (or P6 ?v_88) ?v_3)) (or (or ?v_9 ?v_86) ?v_77)) (or (or P12 ?v_147) ?v_91)) (or (or P4 ?v_27) ?v_60)) (or (or ?v_44 ?v_57) ?v_50)) (or ?v_154 P27)) (or (or ?v_9 ?v_7) P14)) (or (or ?v_83 ?v_37) ?v_75)) (or (or ?v_21 P10) ?v_107)) (or (or ?v_110 ?v_43) ?v_115)) (or (or ?v_84 ?v_20) ?v_78)) (or (or ?v_79 ?v_9) ?v_71)) (or (or P6 ?v_144) ?v_83)) (or (or ?v_18 P17) ?v_98)) (or (or ?v_100 ?v_122) ?v_25)) (or (or ?v_43 ?v_62) ?v_106)) (or (or P21 ?v_97) ?v_51)) (or (or P13 ?v_77) ?v_103)) (or (or P5 ?v_113) ?v_46)) (or (or ?v_137 P29) ?v_72)) (or (or ?v_47 ?v_22) ?v_114)) (or (or ?v_123 ?v_113) ?v_18)) (or ?v_155 ?v_35)) (or (or ?v_60 ?v_93) ?v_5)) (or (or ?v_0 ?v_13) P10)) (or (or P25 ?v_50) P19)) (or (or ?v_128 P11) ?v_151)) (or (or P2 P5) ?v_116)) (or (or ?v_44 P27) ?v_133)) (or (or ?v_95 ?v_19) ?v_130)) (or (or ?v_88 P27) P11)) (or (or ?v_141 ?v_116) ?v_142)) (or (or ?v_99 ?v_103) ?v_100)) (or (or ?v_65 P26) ?v_85)) (or (or ?v_98 ?v_126) ?v_33)) (or (or ?v_15 ?v_140) ?v_17)) (or (or P5 ?v_17) ?v_83)) (or (or ?v_64 ?v_107) ?v_54)) (or (or ?v_50 P11) ?v_146)) (or (or ?v_33 ?v_71) ?v_79)) (or (or P13 ?v_3) ?v_111)) (or (or P12 ?v_100) ?v_141)) (or (or ?v_27 ?v_42) ?v_71)) (or (or ?v_139 P3) ?v_54)) (or (or P23 ?v_141) ?v_151)) (or (or P26 ?v_139) ?v_76)) (or (or ?v_76 ?v_121) ?v_101)) (or (or ?v_129 P11) ?v_99)) (or (or ?v_37 ?v_125) ?v_149)) (or (or ?v_113 ?v_96) ?v_60)) (or (or ?v_12 ?v_25) ?v_71)) (or (or ?v_22 ?v_143) ?v_20)) (or (or ?v_123 ?v_34) ?v_146)) (or (or ?v_76 ?v_73) ?v_134)) (or (or ?v_13 ?v_108) ?v_88)) (or (or ?v_119 ?v_53) ?v_57)) (or (or ?v_138 ?v_131) ?v_128)) (or (or ?v_144 ?v_85) ?v_148)) (or (or P0 ?v_128) P7)) (or (or ?v_13 ?v_127) P2))))))))))))))))))))))))
(check-sat)
(exit)
